p cnf 40 40
-1 22 20 0
-15 16 -20 0
-28 -25 38 0
14 -32 -8 0
-29 17 -24 0
8 29 26 0
-6 -9 -22 0
13 -4 36 0
-26 -34 -15 0
18 -33 -26 0
-24 33 2 0
15 12 -36 0
-7 17 1 0
-19 25 17 0
-18 20 -1 0
-38 29 -26 0
27 24 -15 0
-28 35 -29 0
-27 20 -19 0
33 19 -23 0
4 -39 -19 0
-31 -33 -13 0
38 26 -6 0
-27 -18 35 0
16 -37 -13 0
31 -39 -27 0
16 -23 24 0
3 27 31 0
3 7 -33 0
-35 -31 -10 0
21 -5 -11 0
-27 -2 -40 0
18 -6 -15 0
-40 39 -13 0
-27 -32 9 0
21 7 -36 0
21 -18 27 0
-25 -6 -16 0
38 32 -17 0
-3 26 35 0
